5 5
6 2 2 9 5 5 4 4 14 3 20 5 11 2 12 1 4 19 1 2 2 5 2 19 1 18 3 2 5 4 4 7 5 5 7 3 11 1 6 2 2 4 19
8 4 1 7 4 5 3 17 2 7 3 5 20 3 13 1 15 2 3 11 2 8 2 5 14 2 10 5 2 16 1 11 4 6 5 3 3 4 2 2 14 4 13 3 2 18 3 12 4 12 5 5 18 4 15 2 13 3 8 1 9
6 3 4 19 5 12 3 10 5 5 20 3 17 4 16 1 8 2 2 4 2 20 1 12 5 7 4 13 1 2 4 5 4 11 5 4 2 4 1 20 3 7 5 3 12 1 15 5 16 4 10 2 16
5 4 1 4 4 11 3 6 2 4 1 3 4 2 4 17 2 7 1 3 18 2 1 14 2 9
4 1 3 8 2 3 19 4 9 3 5 15 4 7 3 17 3 3 4 4 3 1 11